GLPSOL--GLPK LP/MIP Solver 5.0
Parameter(s) specified in the command line:
 --lp ./Instances/small/optimizedinstance71.lp -o ./Instances/small/solutions/optimizedinstance71.out
 --log ./Instances/small/solutions/optimizedinstance71.glplog
Reading problem data from './Instances/small/optimizedinstance71.lp'...
373 rows, 375 columns, 28779 non-zeros
375 integer variables, all of which are binary
753 lines were read
GLPK Integer Optimizer 5.0
373 rows, 375 columns, 28779 non-zeros
375 integer variables, all of which are binary
Preprocessing...
373 rows, 375 columns, 28779 non-zeros
375 integer variables, all of which are binary
Scaling...
 A: min|aij| =  1.000e+00  max|aij| =  1.870e+02  ratio =  1.870e+02
GM: min|aij| =  7.383e-02  max|aij| =  1.354e+01  ratio =  1.835e+02
EQ: min|aij| =  5.505e-03  max|aij| =  1.000e+00  ratio =  1.817e+02
2N: min|aij| =  3.906e-03  max|aij| =  1.625e+00  ratio =  4.160e+02
Constructing initial basis...
Size of triangular part is 373
Solving LP relaxation...
GLPK Simplex Optimizer 5.0
373 rows, 375 columns, 28779 non-zeros
*     0: obj =  -0.000000000e+00 inf =   0.000e+00 (375)
*   319: obj =   2.116315318e+03 inf =   0.000e+00 (0) 1
OPTIMAL LP SOLUTION FOUND
Integer optimization begins...
Long-step dual simplex will be used
+   319: mip =     not found yet <=              +inf        (1; 0)
+   713: >>>>>   9.700000000e+01 <=   2.088000000e+03        (74; 0)
+  1488: >>>>>   1.050000000e+02 <=   2.080000000e+03        (217; 4)
+  2165: mip =   1.050000000e+02 <=   2.077000000e+03        (298; 16)
+  2613: mip =   1.050000000e+02 <=   2.077000000e+03        (409; 17)
+  3296: mip =   1.050000000e+02 <=   2.068000000e+03        (526; 19)
+  3884: mip =   1.050000000e+02 <=   2.051000000e+03        (651; 21)
+  4552: mip =   1.050000000e+02 <=   2.050000000e+03        (763; 22)
+  4583: >>>>>   1.130000000e+02 <=   2.050000000e+03        (775; 22)
+  5326: mip =   1.130000000e+02 <=   2.031000000e+03        (880; 38)
+  6057: mip =   1.130000000e+02 <=   2.019000000e+03        (1006; 40)
+  6758: mip =   1.130000000e+02 <=   2.014000000e+03        (1124; 42)
+  7346: mip =   1.130000000e+02 <=   2.007000000e+03        (1241; 44)
+  7547: >>>>>   1.140000000e+02 <=   2.007000000e+03        (1318; 44)
+  8170: mip =   1.140000000e+02 <=   1.988000000e+03        (1427; 52)
Time used: 60.0 secs.  Memory used: 6.1 Mb.
+  8729: mip =   1.140000000e+02 <=   1.975000000e+03        (1547; 54)
+  9323: mip =   1.140000000e+02 <=   1.975000000e+03        (1669; 55)
+  9917: mip =   1.140000000e+02 <=   1.965000000e+03        (1790; 57)
+ 10282: mip =   1.140000000e+02 <=   1.960000000e+03        (1882; 58)
+ 10652: mip =   1.140000000e+02 <=   1.955000000e+03        (1973; 59)
+ 11319: mip =   1.140000000e+02 <=   1.954000000e+03        (2082; 61)
+ 12067: mip =   1.140000000e+02 <=   1.944000000e+03        (2205; 63)
+ 12747: mip =   1.140000000e+02 <=   1.925000000e+03        (2321; 65)
+ 12782: >>>>>   1.180000000e+02 <=   1.925000000e+03        (2347; 65)
+ 13326: mip =   1.180000000e+02 <=   1.919000000e+03        (2447; 85)
+ 13888: mip =   1.180000000e+02 <=   1.914000000e+03        (2561; 86)
+ 14527: mip =   1.180000000e+02 <=   1.905000000e+03        (2672; 88)
+ 15257: mip =   1.180000000e+02 <=   1.898000000e+03        (2805; 90)
Time used: 120.0 secs.  Memory used: 7.2 Mb.
+ 16055: mip =   1.180000000e+02 <=   1.891000000e+03        (2918; 93)
+ 16567: mip =   1.180000000e+02 <=   1.890000000e+03        (3039; 94)
+ 17377: mip =   1.180000000e+02 <=   1.881000000e+03        (3159; 97)
+ 18106: mip =   1.180000000e+02 <=   1.868000000e+03        (3273; 99)
+ 18763: mip =   1.180000000e+02 <=   1.860000000e+03        (3389; 101)
+ 19262: mip =   1.180000000e+02 <=   1.850000000e+03        (3492; 103)
+ 19945: mip =   1.180000000e+02 <=   1.840000000e+03        (3610; 105)
+ 20628: mip =   1.180000000e+02 <=   1.835000000e+03        (3731; 107)
+ 21089: mip =   1.180000000e+02 <=   1.825000000e+03        (3853; 108)
+ 21688: mip =   1.180000000e+02 <=   1.812000000e+03        (3968; 110)
+ 22105: mip =   1.180000000e+02 <=   1.809000000e+03        (4099; 111)
+ 22679: mip =   1.180000000e+02 <=   1.791000000e+03        (4213; 113)
Time used: 180.0 secs.  Memory used: 8.3 Mb.
+ 23304: mip =   1.180000000e+02 <=   1.782000000e+03        (4335; 115)
+ 23676: mip =   1.180000000e+02 <=   1.779000000e+03        (4438; 116)
+ 24435: mip =   1.180000000e+02 <=   1.765000000e+03        (4558; 119)
+ 24872: mip =   1.180000000e+02 <=   1.765000000e+03        (4661; 120)
+ 25717: mip =   1.180000000e+02 <=   1.742000000e+03        (4801; 123)
+ 26342: mip =   1.180000000e+02 <=   1.733000000e+03        (4936; 125)
+ 27158: mip =   1.180000000e+02 <=   1.711000000e+03        (5103; 128)
+ 27926: mip =   1.180000000e+02 <=   1.699000000e+03        (5261; 130)
+ 28435: mip =   1.180000000e+02 <=   1.692000000e+03        (5400; 132)
+ 29128: mip =   1.180000000e+02 <=   1.669000000e+03        (5526; 134)
+ 29469: mip =   1.180000000e+02 <=   1.668000000e+03        (5641; 135)
+ 29978: mip =   1.180000000e+02 <=   1.661000000e+03        (5759; 137)
Time used: 240.0 secs.  Memory used: 9.5 Mb.
+ 30434: mip =   1.180000000e+02 <=   1.661000000e+03        (5864; 138)
+ 30974: mip =   1.180000000e+02 <=   1.642000000e+03        (5966; 140)
+ 31474: mip =   1.180000000e+02 <=   1.639000000e+03        (6065; 142)
+ 31984: mip =   1.180000000e+02 <=   1.629000000e+03        (6172; 144)
+ 32738: mip =   1.180000000e+02 <=   1.625000000e+03        (6272; 147)
+ 33169: mip =   1.180000000e+02 <=   1.622000000e+03        (6382; 148)
+ 33456: mip =   1.180000000e+02 <=   1.620000000e+03        (6477; 149)
+ 33911: mip =   1.180000000e+02 <=   1.616000000e+03        (6587; 151)
+ 34205: mip =   1.180000000e+02 <=   1.616000000e+03        (6664; 152)
+ 34709: mip =   1.180000000e+02 <=   1.615000000e+03        (6765; 154)
+ 35148: mip =   1.180000000e+02 <=   1.613000000e+03        (6881; 156)
+ 35780: mip =   1.180000000e+02 <=   1.610000000e+03        (6993; 158)
Time used: 300.1 secs.  Memory used: 10.4 Mb.
+ 36090: mip =   1.180000000e+02 <=   1.609000000e+03        (7096; 159)
+ 36863: mip =   1.180000000e+02 <=   1.603000000e+03        (7212; 162)
+ 37385: mip =   1.180000000e+02 <=   1.602000000e+03        (7316; 164)
+ 37674: mip =   1.180000000e+02 <=   1.599000000e+03        (7420; 165)
+ 38365: mip =   1.180000000e+02 <=   1.594000000e+03        (7546; 168)
+ 38886: mip =   1.180000000e+02 <=   1.590000000e+03        (7657; 170)
+ 39294: mip =   1.180000000e+02 <=   1.589000000e+03        (7751; 171)
+ 39766: mip =   1.180000000e+02 <=   1.587000000e+03        (7856; 173)
+ 40346: mip =   1.180000000e+02 <=   1.584000000e+03        (7955; 175)
+ 40780: mip =   1.180000000e+02 <=   1.583000000e+03        (8055; 177)
+ 41400: mip =   1.180000000e+02 <=   1.581000000e+03        (8168; 179)
Time used: 360.1 secs.  Memory used: 11.3 Mb.
+ 41925: mip =   1.180000000e+02 <=   1.575000000e+03        (8260; 181)
+ 42359: mip =   1.180000000e+02 <=   1.572000000e+03        (8372; 183)
+ 42864: mip =   1.180000000e+02 <=   1.567000000e+03        (8485; 185)
+ 43225: mip =   1.180000000e+02 <=   1.567000000e+03        (8577; 186)
+ 43712: mip =   1.180000000e+02 <=   1.560000000e+03        (8674; 188)
+ 44336: mip =   1.180000000e+02 <=   1.560000000e+03        (8787; 191)
+ 44834: mip =   1.180000000e+02 <=   1.556000000e+03        (8902; 193)
+ 45346: mip =   1.180000000e+02 <=   1.555000000e+03        (9020; 195)
+ 45916: mip =   1.180000000e+02 <=   1.552000000e+03        (9133; 197)
+ 46323: mip =   1.180000000e+02 <=   1.552000000e+03        (9227; 199)
+ 46878: mip =   1.180000000e+02 <=   1.551000000e+03        (9328; 201)
+ 47256: mip =   1.180000000e+02 <=   1.550000000e+03        (9430; 203)
Time used: 420.1 secs.  Memory used: 12.2 Mb.
+ 47814: mip =   1.180000000e+02 <=   1.548000000e+03        (9547; 205)
+ 48318: mip =   1.180000000e+02 <=   1.547000000e+03        (9663; 207)
+ 48721: mip =   1.180000000e+02 <=   1.547000000e+03        (9766; 208)
+ 49372: mip =   1.180000000e+02 <=   1.543000000e+03        (9881; 211)
+ 49961: mip =   1.180000000e+02 <=   1.542000000e+03        (9982; 213)
+ 50444: mip =   1.180000000e+02 <=   1.541000000e+03        (10097; 215)
+ 50871: mip =   1.180000000e+02 <=   1.540000000e+03        (10221; 217)
+ 51337: mip =   1.180000000e+02 <=   1.539000000e+03        (10347; 219)
+ 51713: mip =   1.180000000e+02 <=   1.538000000e+03        (10463; 220)
+ 52234: mip =   1.180000000e+02 <=   1.536000000e+03        (10577; 222)
+ 52543: mip =   1.180000000e+02 <=   1.536000000e+03        (10694; 223)
+ 53215: mip =   1.180000000e+02 <=   1.534000000e+03        (10816; 226)
Time used: 480.1 secs.  Memory used: 13.5 Mb.
+ 53811: mip =   1.180000000e+02 <=   1.531000000e+03        (10937; 228)
+ 54287: mip =   1.180000000e+02 <=   1.528000000e+03        (11042; 230)
+ 54900: mip =   1.180000000e+02 <=   1.523000000e+03        (11157; 233)
+ 55300: mip =   1.180000000e+02 <=   1.522000000e+03        (11259; 234)
+ 55606: mip =   1.180000000e+02 <=   1.522000000e+03        (11364; 235)
+ 56184: mip =   1.180000000e+02 <=   1.521000000e+03        (11465; 238)
+ 56788: mip =   1.180000000e+02 <=   1.520000000e+03        (11579; 240)
+ 57221: mip =   1.180000000e+02 <=   1.517000000e+03        (11704; 242)
+ 57742: mip =   1.180000000e+02 <=   1.511000000e+03        (11819; 244)
+ 58353: mip =   1.180000000e+02 <=   1.509000000e+03        (11940; 246)
+ 58839: mip =   1.180000000e+02 <=   1.505000000e+03        (12061; 248)
+ 59434: mip =   1.180000000e+02 <=   1.501000000e+03        (12173; 251)
Time used: 540.1 secs.  Memory used: 14.4 Mb.
+ 59907: mip =   1.180000000e+02 <=   1.498000000e+03        (12283; 253)
+ 60585: mip =   1.180000000e+02 <=   1.497000000e+03        (12395; 256)
+ 60910: mip =   1.180000000e+02 <=   1.496000000e+03        (12495; 257)
+ 61861: mip =   1.180000000e+02 <=   1.494000000e+03        (12726; 261)
+ 62866: mip =   1.180000000e+02 <=   1.491000000e+03        (12917; 265)
+ 63893: mip =   1.180000000e+02 <=   1.488000000e+03        (13118; 270)
+ 64666: mip =   1.180000000e+02 <=   1.488000000e+03        (13307; 273)
+ 65263: mip =   1.180000000e+02 <=   1.487000000e+03        (13478; 275)
+ 66039: mip =   1.180000000e+02 <=   1.484000000e+03        (13673; 278)
+ 66756: mip =   1.180000000e+02 <=   1.482000000e+03        (13860; 282)
+ 67804: mip =   1.180000000e+02 <=   1.479000000e+03        (14028; 286)
+ 68409: mip =   1.180000000e+02 <=   1.478000000e+03        (14199; 288)
Time used: 600.1 secs.  Memory used: 15.9 Mb.
+ 69320: mip =   1.180000000e+02 <=   1.476000000e+03        (14368; 292)
+ 70013: mip =   1.180000000e+02 <=   1.475000000e+03        (14555; 295)
+ 70786: mip =   1.180000000e+02 <=   1.474000000e+03        (14736; 298)
+ 71516: mip =   1.180000000e+02 <=   1.472000000e+03        (14917; 301)
+ 72282: mip =   1.180000000e+02 <=   1.471000000e+03        (15103; 304)
+ 72756: mip =   1.180000000e+02 <=   1.470000000e+03        (15226; 306)
+ 73267: mip =   1.180000000e+02 <=   1.469000000e+03        (15343; 308)
+ 73838: mip =   1.180000000e+02 <=   1.468000000e+03        (15462; 311)
+ 74190: mip =   1.180000000e+02 <=   1.467000000e+03        (15591; 312)
+ 74812: mip =   1.180000000e+02 <=   1.466000000e+03        (15715; 315)
+ 75385: mip =   1.180000000e+02 <=   1.465000000e+03        (15846; 317)
+ 76049: mip =   1.180000000e+02 <=   1.464000000e+03        (15973; 320)
Time used: 660.2 secs.  Memory used: 17.1 Mb.
+ 76678: mip =   1.180000000e+02 <=   1.464000000e+03        (16114; 323)
+ 77470: mip =   1.180000000e+02 <=   1.461000000e+03        (16249; 326)
+ 77922: mip =   1.180000000e+02 <=   1.461000000e+03        (16377; 328)
+ 78603: mip =   1.180000000e+02 <=   1.459000000e+03        (16492; 331)
+ 79274: mip =   1.180000000e+02 <=   1.458000000e+03        (16637; 334)
+ 79730: mip =   1.180000000e+02 <=   1.458000000e+03        (16760; 336)
+ 80455: mip =   1.180000000e+02 <=   1.458000000e+03        (16896; 339)
+ 81003: mip =   1.180000000e+02 <=   1.457000000e+03        (17018; 341)
+ 81670: mip =   1.180000000e+02 <=   1.456000000e+03        (17180; 344)
+ 82386: mip =   1.180000000e+02 <=   1.455000000e+03        (17345; 347)
+ 83142: mip =   1.180000000e+02 <=   1.453000000e+03        (17484; 351)
+ 83674: mip =   1.180000000e+02 <=   1.453000000e+03        (17624; 353)
Time used: 720.2 secs.  Memory used: 18.3 Mb.
+ 84214: mip =   1.180000000e+02 <=   1.452000000e+03        (17772; 355)
+ 84728: mip =   1.180000000e+02 <=   1.452000000e+03        (17912; 357)
+ 85356: mip =   1.180000000e+02 <=   1.451000000e+03        (18041; 360)
+ 85914: mip =   1.180000000e+02 <=   1.450000000e+03        (18177; 362)
+ 86491: mip =   1.180000000e+02 <=   1.450000000e+03        (18316; 365)
+ 86989: mip =   1.180000000e+02 <=   1.450000000e+03        (18455; 367)
+ 87646: mip =   1.180000000e+02 <=   1.449000000e+03        (18585; 370)
+ 88231: mip =   1.180000000e+02 <=   1.449000000e+03        (18727; 373)
+ 88854: mip =   1.180000000e+02 <=   1.448000000e+03        (18870; 376)
+ 89617: mip =   1.180000000e+02 <=   1.448000000e+03        (19002; 379)
+ 90070: mip =   1.180000000e+02 <=   1.448000000e+03        (19126; 381)
+ 90725: mip =   1.180000000e+02 <=   1.448000000e+03        (19247; 384)
Time used: 780.2 secs.  Memory used: 19.4 Mb.
+ 91341: mip =   1.180000000e+02 <=   1.446000000e+03        (19378; 387)
+ 91857: mip =   1.180000000e+02 <=   1.446000000e+03        (19521; 389)
+ 92464: mip =   1.180000000e+02 <=   1.444000000e+03        (19658; 392)
